p cnf 15 23
15 13 -12 0
15 -13 11 0
-15 -13 11 0
15 9 -7 0
15 9 5 0
-15 8 -7 0
-15 8 -1 0
15 -6 5 0
14 -13 -10 0
-14 12 2 0
-14 -9 -5 0
14 8 1 0
13 -8 2 0
-13 4 -3 0
-12 8 -4 0
-12 3 2 0
-11 8 2 0
10 -8 1 0
10 4 3 0
9 -6 2 0
-7 -5 4 0
5 2 1 0
4 -2 1 0
